clingo version 5.8.0
Reading from dominosa.lp ...
Solving...
Answer: 1 (Time: 0.022s)
pair(2,0,2,1) pair(2,1,2,0) pair(1,3,1,4) pair(1,4,1,3) pair(5,7,6,7) pair(6,7,5,7) pair(3,7,4,7) pair(4,7,3,7) pair(2,6,2,7) pair(2,7,2,6) pair(0,7,1,7) pair(1,7,0,7) pair(6,5,6,6) pair(6,6,6,5) pair(6,3,6,4) pair(6,4,6,3) pair(6,1,6,2) pair(6,2,6,1) pair(5,0,6,0) pair(6,0,5,0) pair(4,6,5,6) pair(5,6,4,6) pair(5,4,5,5) pair(5,5,5,4) pair(4,3,5,3) pair(5,3,4,3) pair(5,1,5,2) pair(5,2,5,1) pair(4,4,4,5) pair(4,5,4,4) pair(3,2,4,2) pair(4,2,3,2) pair(3,1,4,1) pair(4,1,3,1) pair(3,0,4,0) pair(4,0,3,0) pair(3,5,3,6) pair(3,6,3,5) pair(3,3,3,4) pair(3,4,3,3) pair(2,4,2,5) pair(2,5,2,4) pair(2,2,2,3) pair(2,3,2,2) pair(0,6,1,6) pair(1,6,0,6) pair(0,5,1,5) pair(1,5,0,5) pair(0,2,1,2) pair(1,2,0,2) pair(0,1,1,1) pair(1,1,0,1) pair(0,0,1,0) pair(1,0,0,0) pair(0,3,0,4) pair(0,4,0,3)
SATISFIABLE

Models       : 1
Calls        : 1
Time         : 0.033s (Solving: 0.01s 1st Model: 0.00s Unsat: 0.01s)
CPU Time     : 0.000s